p cnf 479 2040
-2 0
-3 0
-4 0
-5 0
-6 0
1 0
43 7 0
-43 -7 0
7 8 9 10 11 12 0
-7 306 0
-8 307 0
-306 307 0
-306 -8 0
-9 308 0
-307 308 0
-307 -9 0
-10 309 0
-308 309 0
-308 -10 0
-11 310 0
-309 310 0
-309 -11 0
-310 -12 0
-7 1 13 0
-7 1 49 0
-7 13 49 0
-8 2 14 0
-8 2 50 0
-8 14 50 0
-9 3 15 0
-9 3 51 0
-9 15 51 0
-10 4 16 0
-10 4 52 0
-10 16 52 0
-11 5 17 0
-11 5 53 0
-11 17 53 0
-12 6 18 0
-12 6 54 0
-12 18 54 0
-7 -1 -13 -49 0
-8 -2 -14 -50 0
-9 -3 -15 -51 0
-10 -4 -16 -52 0
-11 -5 -17 -53 0
-12 -6 -18 -54 0
13 14 15 16 17 18 0
-13 311 0
-14 312 0
-311 312 0
-311 -14 0
-15 313 0
-312 313 0
-312 -15 0
-16 314 0
-313 314 0
-313 -16 0
-17 315 0
-314 315 0
-314 -17 0
-315 -18 0
-13 7 19 0
-13 7 55 0
-13 19 55 0
-14 8 20 0
-14 8 56 0
-14 20 56 0
-15 9 21 0
-15 9 57 0
-15 21 57 0
-16 10 22 0
-16 10 58 0
-16 22 58 0
-17 11 23 0
-17 11 59 0
-17 23 59 0
-18 12 24 0
-18 12 60 0
-18 24 60 0
-13 -7 -19 -55 0
-14 -8 -20 -56 0
-15 -9 -21 -57 0
-16 -10 -22 -58 0
-17 -11 -23 -59 0
-18 -12 -24 -60 0
19 20 21 22 23 24 0
-19 316 0
-20 317 0
-316 317 0
-316 -20 0
-21 318 0
-317 318 0
-317 -21 0
-22 319 0
-318 319 0
-318 -22 0
-23 320 0
-319 320 0
-319 -23 0
-320 -24 0
-19 13 25 0
-19 13 61 0
-19 25 61 0
-20 14 26 0
-20 14 62 0
-20 26 62 0
-21 15 27 0
-21 15 63 0
-21 27 63 0
-22 16 28 0
-22 16 64 0
-22 28 64 0
-23 17 29 0
-23 17 65 0
-23 29 65 0
-24 18 30 0
-24 18 66 0
-24 30 66 0
-19 -13 -25 -61 0
-20 -14 -26 -62 0
-21 -15 -27 -63 0
-22 -16 -28 -64 0
-23 -17 -29 -65 0
-24 -18 -30 -66 0
-25 0
-26 0
-27 0
-28 0
-29 0
30 0
24 36 72 0
-24 -36 0
-24 -72 0
-36 -72 0
31 32 33 34 35 36 0
-31 326 0
-32 327 0
-326 327 0
-326 -32 0
-33 328 0
-327 328 0
-327 -33 0
-34 329 0
-328 329 0
-328 -34 0
-35 330 0
-329 330 0
-329 -35 0
-330 -36 0
-31 25 37 0
-31 25 73 0
-31 37 73 0
-32 26 38 0
-32 26 74 0
-32 38 74 0
-33 27 39 0
-33 27 75 0
-33 39 75 0
-34 28 40 0
-34 28 76 0
-34 40 76 0
-35 29 41 0
-35 29 77 0
-35 41 77 0
-36 30 42 0
-36 30 78 0
-36 42 78 0
-31 -25 -37 -73 0
-32 -26 -38 -74 0
-33 -27 -39 -75 0
-34 -28 -40 -76 0
-35 -29 -41 -77 0
-36 -30 -42 -78 0
37 38 39 40 41 42 0
-37 331 0
-38 332 0
-331 332 0
-331 -38 0
-39 333 0
-332 333 0
-332 -39 0
-40 334 0
-333 334 0
-333 -40 0
-41 335 0
-334 335 0
-334 -41 0
-335 -42 0
-37 79 0
-37 31 0
-38 80 0
-38 32 0
-39 81 0
-39 33 0
-40 82 0
-40 34 0
-41 83 0
-41 35 0
-42 84 0
-42 36 0
-43 0
-44 0
-46 0
-47 0
-48 0
45 0
87 51 3 0
-87 -51 0
-87 -3 0
-51 -3 0
49 50 51 52 53 54 0
-49 341 0
-50 342 0
-341 342 0
-341 -50 0
-51 343 0
-342 343 0
-342 -51 0
-52 344 0
-343 344 0
-343 -52 0
-53 345 0
-344 345 0
-344 -53 0
-345 -54 0
-49 91 55 7 0
-49 91 55 43 0
-49 91 7 43 0
-49 55 7 43 0
-50 92 56 8 0
-50 92 56 44 0
-50 92 8 44 0
-50 56 8 44 0
-51 93 57 9 0
-51 93 57 45 0
-51 93 9 45 0
-51 57 9 45 0
-52 94 58 10 0
-52 94 58 46 0
-52 94 10 46 0
-52 58 10 46 0
-53 95 59 11 0
-53 95 59 47 0
-53 95 11 47 0
-53 59 11 47 0
-54 96 60 12 0
-54 96 60 48 0
-54 96 12 48 0
-54 60 12 48 0
-49 -91 -55 -7 0
-49 -91 -55 -43 0
-49 -91 -7 -43 0
-49 -55 -7 -43 0
-50 -92 -56 -8 0
-50 -92 -56 -44 0
-50 -92 -8 -44 0
-50 -56 -8 -44 0
-51 -93 -57 -9 0
-51 -93 -57 -45 0
-51 -93 -9 -45 0
-51 -57 -9 -45 0
-52 -94 -58 -10 0
-52 -94 -58 -46 0
-52 -94 -10 -46 0
-52 -58 -10 -46 0
-53 -95 -59 -11 0
-53 -95 -59 -47 0
-53 -95 -11 -47 0
-53 -59 -11 -47 0
-54 -96 -60 -12 0
-54 -96 -60 -48 0
-54 -96 -12 -48 0
-54 -60 -12 -48 0
-55 0
-57 0
-58 0
-59 0
-60 0
56 0
98 62 14 50 0
-98 -62 0
-98 -14 0
-98 -50 0
-62 -14 0
-62 -50 0
-14 -50 0
61 62 63 64 65 66 0
-61 351 0
-62 352 0
-351 352 0
-351 -62 0
-63 353 0
-352 353 0
-352 -63 0
-64 354 0
-353 354 0
-353 -64 0
-65 355 0
-354 355 0
-354 -65 0
-355 -66 0
-61 103 67 19 0
-61 103 67 55 0
-61 103 19 55 0
-61 67 19 55 0
-62 104 68 20 0
-62 104 68 56 0
-62 104 20 56 0
-62 68 20 56 0
-63 105 69 21 0
-63 105 69 57 0
-63 105 21 57 0
-63 69 21 57 0
-64 106 70 22 0
-64 106 70 58 0
-64 106 22 58 0
-64 70 22 58 0
-65 107 71 23 0
-65 107 71 59 0
-65 107 23 59 0
-65 71 23 59 0
-66 108 72 24 0
-66 108 72 60 0
-66 108 24 60 0
-66 72 24 60 0
-61 -103 -67 -19 0
-61 -103 -67 -55 0
-61 -103 -19 -55 0
-61 -67 -19 -55 0
-62 -104 -68 -20 0
-62 -104 -68 -56 0
-62 -104 -20 -56 0
-62 -68 -20 -56 0
-63 -105 -69 -21 0
-63 -105 -69 -57 0
-63 -105 -21 -57 0
-63 -69 -21 -57 0
-64 -106 -70 -22 0
-64 -106 -70 -58 0
-64 -106 -22 -58 0
-64 -70 -22 -58 0
-65 -107 -71 -23 0
-65 -107 -71 -59 0
-65 -107 -23 -59 0
-65 -71 -23 -59 0
-66 -108 -72 -24 0
-66 -108 -72 -60 0
-66 -108 -24 -60 0
-66 -72 -24 -60 0
67 68 69 70 71 72 0
-67 356 0
-68 357 0
-356 357 0
-356 -68 0
-69 358 0
-357 358 0
-357 -69 0
-70 359 0
-358 359 0
-358 -70 0
-71 360 0
-359 360 0
-359 -71 0
-360 -72 0
-67 109 73 25 0
-67 109 73 61 0
-67 109 25 61 0
-67 73 25 61 0
-68 110 74 26 0
-68 110 74 62 0
-68 110 26 62 0
-68 74 26 62 0
-69 111 75 27 0
-69 111 75 63 0
-69 111 27 63 0
-69 75 27 63 0
-70 112 76 28 0
-70 112 76 64 0
-70 112 28 64 0
-70 76 28 64 0
-71 113 77 29 0
-71 113 77 65 0
-71 113 29 65 0
-71 77 29 65 0
-72 114 78 30 0
-72 114 78 66 0
-72 114 30 66 0
-72 78 30 66 0
-67 -109 -73 -25 0
-67 -109 -73 -61 0
-67 -109 -25 -61 0
-67 -73 -25 -61 0
-68 -110 -74 -26 0
-68 -110 -74 -62 0
-68 -110 -26 -62 0
-68 -74 -26 -62 0
-69 -111 -75 -27 0
-69 -111 -75 -63 0
-69 -111 -27 -63 0
-69 -75 -27 -63 0
-70 -112 -76 -28 0
-70 -112 -76 -64 0
-70 -112 -28 -64 0
-70 -76 -28 -64 0
-71 -113 -77 -29 0
-71 -113 -77 -65 0
-71 -113 -29 -65 0
-71 -77 -29 -65 0
-72 -114 -78 -30 0
-72 -114 -78 -66 0
-72 -114 -30 -66 0
-72 -78 -30 -66 0
-73 0
-75 0
-76 0
-77 0
-78 0
74 0
116 80 32 68 0
-116 -80 0
-116 -32 0
-116 -68 0
-80 -32 0
-80 -68 0
-32 -68 0
79 80 81 82 83 84 0
-79 366 0
-80 367 0
-366 367 0
-366 -80 0
-81 368 0
-367 368 0
-367 -81 0
-82 369 0
-368 369 0
-368 -82 0
-83 370 0
-369 370 0
-369 -83 0
-370 -84 0
-79 121 73 0
-79 121 37 0
-79 73 37 0
-80 122 74 0
-80 122 38 0
-80 74 38 0
-81 123 75 0
-81 123 39 0
-81 75 39 0
-82 124 76 0
-82 124 40 0
-82 76 40 0
-83 125 77 0
-83 125 41 0
-83 77 41 0
-84 126 78 0
-84 126 42 0
-84 78 42 0
-79 -121 -73 -37 0
-80 -122 -74 -38 0
-81 -123 -75 -39 0
-82 -124 -76 -40 0
-83 -125 -77 -41 0
-84 -126 -78 -42 0
-85 0
-86 0
-87 0
-89 0
-90 0
88 0
130 94 46 0
-130 -94 0
-130 -46 0
-94 -46 0
91 92 93 94 95 96 0
-91 376 0
-92 377 0
-376 377 0
-376 -92 0
-93 378 0
-377 378 0
-377 -93 0
-94 379 0
-378 379 0
-378 -94 0
-95 380 0
-379 380 0
-379 -95 0
-380 -96 0
-91 133 97 49 0
-91 133 97 85 0
-91 133 49 85 0
-91 97 49 85 0
-92 134 98 50 0
-92 134 98 86 0
-92 134 50 86 0
-92 98 50 86 0
-93 135 99 51 0
-93 135 99 87 0
-93 135 51 87 0
-93 99 51 87 0
-94 136 100 52 0
-94 136 100 88 0
-94 136 52 88 0
-94 100 52 88 0
-95 137 101 53 0
-95 137 101 89 0
-95 137 53 89 0
-95 101 53 89 0
-96 138 102 54 0
-96 138 102 90 0
-96 138 54 90 0
-96 102 54 90 0
-91 -133 -97 -49 0
-91 -133 -97 -85 0
-91 -133 -49 -85 0
-91 -97 -49 -85 0
-92 -134 -98 -50 0
-92 -134 -98 -86 0
-92 -134 -50 -86 0
-92 -98 -50 -86 0
-93 -135 -99 -51 0
-93 -135 -99 -87 0
-93 -135 -51 -87 0
-93 -99 -51 -87 0
-94 -136 -100 -52 0
-94 -136 -100 -88 0
-94 -136 -52 -88 0
-94 -100 -52 -88 0
-95 -137 -101 -53 0
-95 -137 -101 -89 0
-95 -137 -53 -89 0
-95 -101 -53 -89 0
-96 -138 -102 -54 0
-96 -138 -102 -90 0
-96 -138 -54 -90 0
-96 -102 -54 -90 0
97 98 99 100 101 102 0
-97 381 0
-98 382 0
-381 382 0
-381 -98 0
-99 383 0
-382 383 0
-382 -99 0
-100 384 0
-383 384 0
-383 -100 0
-101 385 0
-384 385 0
-384 -101 0
-385 -102 0
-97 139 103 55 0
-97 139 103 91 0
-97 139 55 91 0
-97 103 55 91 0
-98 140 104 56 0
-98 140 104 92 0
-98 140 56 92 0
-98 104 56 92 0
-99 141 105 57 0
-99 141 105 93 0
-99 141 57 93 0
-99 105 57 93 0
-100 142 106 58 0
-100 142 106 94 0
-100 142 58 94 0
-100 106 58 94 0
-101 143 107 59 0
-101 143 107 95 0
-101 143 59 95 0
-101 107 59 95 0
-102 144 108 60 0
-102 144 108 96 0
-102 144 60 96 0
-102 108 60 96 0
-97 -139 -103 -55 0
-97 -139 -103 -91 0
-97 -139 -55 -91 0
-97 -103 -55 -91 0
-98 -140 -104 -56 0
-98 -140 -104 -92 0
-98 -140 -56 -92 0
-98 -104 -56 -92 0
-99 -141 -105 -57 0
-99 -141 -105 -93 0
-99 -141 -57 -93 0
-99 -105 -57 -93 0
-100 -142 -106 -58 0
-100 -142 -106 -94 0
-100 -142 -58 -94 0
-100 -106 -58 -94 0
-101 -143 -107 -59 0
-101 -143 -107 -95 0
-101 -143 -59 -95 0
-101 -107 -59 -95 0
-102 -144 -108 -60 0
-102 -144 -108 -96 0
-102 -144 -60 -96 0
-102 -108 -60 -96 0
103 104 105 106 107 108 0
-103 386 0
-104 387 0
-386 387 0
-386 -104 0
-105 388 0
-387 388 0
-387 -105 0
-106 389 0
-388 389 0
-388 -106 0
-107 390 0
-389 390 0
-389 -107 0
-390 -108 0
-103 145 109 61 0
-103 145 109 97 0
-103 145 61 97 0
-103 109 61 97 0
-104 146 110 62 0
-104 146 110 98 0
-104 146 62 98 0
-104 110 62 98 0
-105 147 111 63 0
-105 147 111 99 0
-105 147 63 99 0
-105 111 63 99 0
-106 148 112 64 0
-106 148 112 100 0
-106 148 64 100 0
-106 112 64 100 0
-107 149 113 65 0
-107 149 113 101 0
-107 149 65 101 0
-107 113 65 101 0
-108 150 114 66 0
-108 150 114 102 0
-108 150 66 102 0
-108 114 66 102 0
-103 -145 -109 -61 0
-103 -145 -109 -97 0
-103 -145 -61 -97 0
-103 -109 -61 -97 0
-104 -146 -110 -62 0
-104 -146 -110 -98 0
-104 -146 -62 -98 0
-104 -110 -62 -98 0
-105 -147 -111 -63 0
-105 -147 -111 -99 0
-105 -147 -63 -99 0
-105 -111 -63 -99 0
-106 -148 -112 -64 0
-106 -148 -112 -100 0
-106 -148 -64 -100 0
-106 -112 -64 -100 0
-107 -149 -113 -65 0
-107 -149 -113 -101 0
-107 -149 -65 -101 0
-107 -113 -65 -101 0
-108 -150 -114 -66 0
-108 -150 -114 -102 0
-108 -150 -66 -102 0
-108 -114 -66 -102 0
-110 0
-111 0
-112 0
-113 0
-114 0
109 0
151 115 67 103 0
-151 -115 0
-151 -67 0
-151 -103 0
-115 -67 0
-115 -103 0
-67 -103 0
115 116 117 118 119 120 0
-115 396 0
-116 397 0
-396 397 0
-396 -116 0
-117 398 0
-397 398 0
-397 -117 0
-118 399 0
-398 399 0
-398 -118 0
-119 400 0
-399 400 0
-399 -119 0
-400 -120 0
-115 157 121 73 0
-115 157 121 109 0
-115 157 73 109 0
-115 121 73 109 0
-116 158 122 74 0
-116 158 122 110 0
-116 158 74 110 0
-116 122 74 110 0
-117 159 123 75 0
-117 159 123 111 0
-117 159 75 111 0
-117 123 75 111 0
-118 160 124 76 0
-118 160 124 112 0
-118 160 76 112 0
-118 124 76 112 0
-119 161 125 77 0
-119 161 125 113 0
-119 161 77 113 0
-119 125 77 113 0
-120 162 126 78 0
-120 162 126 114 0
-120 162 78 114 0
-120 126 78 114 0
-115 -157 -121 -73 0
-115 -157 -121 -109 0
-115 -157 -73 -109 0
-115 -121 -73 -109 0
-116 -158 -122 -74 0
-116 -158 -122 -110 0
-116 -158 -74 -110 0
-116 -122 -74 -110 0
-117 -159 -123 -75 0
-117 -159 -123 -111 0
-117 -159 -75 -111 0
-117 -123 -75 -111 0
-118 -160 -124 -76 0
-118 -160 -124 -112 0
-118 -160 -76 -112 0
-118 -124 -76 -112 0
-119 -161 -125 -77 0
-119 -161 -125 -113 0
-119 -161 -77 -113 0
-119 -125 -77 -113 0
-120 -162 -126 -78 0
-120 -162 -126 -114 0
-120 -162 -78 -114 0
-120 -126 -78 -114 0
121 122 123 124 125 126 0
-121 401 0
-122 402 0
-401 402 0
-401 -122 0
-123 403 0
-402 403 0
-402 -123 0
-124 404 0
-403 404 0
-403 -124 0
-125 405 0
-404 405 0
-404 -125 0
-405 -126 0
-121 163 115 0
-121 163 79 0
-121 115 79 0
-122 164 116 0
-122 164 80 0
-122 116 80 0
-123 165 117 0
-123 165 81 0
-123 117 81 0
-124 166 118 0
-124 166 82 0
-124 118 82 0
-125 167 119 0
-125 167 83 0
-125 119 83 0
-126 168 120 0
-126 168 84 0
-126 120 84 0
-121 -163 -115 -79 0
-122 -164 -116 -80 0
-123 -165 -117 -81 0
-124 -166 -118 -82 0
-125 -167 -119 -83 0
-126 -168 -120 -84 0
127 128 129 130 131 132 0
-127 406 0
-128 407 0
-406 407 0
-406 -128 0
-129 408 0
-407 408 0
-407 -129 0
-130 409 0
-408 409 0
-408 -130 0
-131 410 0
-409 410 0
-409 -131 0
-410 -132 0
-127 169 133 0
-127 169 85 0
-127 133 85 0
-128 170 134 0
-128 170 86 0
-128 134 86 0
-129 171 135 0
-129 171 87 0
-129 135 87 0
-130 172 136 0
-130 172 88 0
-130 136 88 0
-131 173 137 0
-131 173 89 0
-131 137 89 0
-132 174 138 0
-132 174 90 0
-132 138 90 0
-127 -169 -133 -85 0
-128 -170 -134 -86 0
-129 -171 -135 -87 0
-130 -172 -136 -88 0
-131 -173 -137 -89 0
-132 -174 -138 -90 0
133 134 135 136 137 138 0
-133 411 0
-134 412 0
-411 412 0
-411 -134 0
-135 413 0
-412 413 0
-412 -135 0
-136 414 0
-413 414 0
-413 -136 0
-137 415 0
-414 415 0
-414 -137 0
-415 -138 0
-133 175 139 91 0
-133 175 139 127 0
-133 175 91 127 0
-133 139 91 127 0
-134 176 140 92 0
-134 176 140 128 0
-134 176 92 128 0
-134 140 92 128 0
-135 177 141 93 0
-135 177 141 129 0
-135 177 93 129 0
-135 141 93 129 0
-136 178 142 94 0
-136 178 142 130 0
-136 178 94 130 0
-136 142 94 130 0
-137 179 143 95 0
-137 179 143 131 0
-137 179 95 131 0
-137 143 95 131 0
-138 180 144 96 0
-138 180 144 132 0
-138 180 96 132 0
-138 144 96 132 0
-133 -175 -139 -91 0
-133 -175 -139 -127 0
-133 -175 -91 -127 0
-133 -139 -91 -127 0
-134 -176 -140 -92 0
-134 -176 -140 -128 0
-134 -176 -92 -128 0
-134 -140 -92 -128 0
-135 -177 -141 -93 0
-135 -177 -141 -129 0
-135 -177 -93 -129 0
-135 -141 -93 -129 0
-136 -178 -142 -94 0
-136 -178 -142 -130 0
-136 -178 -94 -130 0
-136 -142 -94 -130 0
-137 -179 -143 -95 0
-137 -179 -143 -131 0
-137 -179 -95 -131 0
-137 -143 -95 -131 0
-138 -180 -144 -96 0
-138 -180 -144 -132 0
-138 -180 -96 -132 0
-138 -144 -96 -132 0
-139 0
-140 0
-141 0
-142 0
-144 0
143 0
185 149 101 137 0
-185 -149 0
-185 -101 0
-185 -137 0
-149 -101 0
-149 -137 0
-101 -137 0
145 146 147 148 149 150 0
-145 421 0
-146 422 0
-421 422 0
-421 -146 0
-147 423 0
-422 423 0
-422 -147 0
-148 424 0
-423 424 0
-423 -148 0
-149 425 0
-424 425 0
-424 -149 0
-425 -150 0
-145 187 151 103 0
-145 187 151 139 0
-145 187 103 139 0
-145 151 103 139 0
-146 188 152 104 0
-146 188 152 140 0
-146 188 104 140 0
-146 152 104 140 0
-147 189 153 105 0
-147 189 153 141 0
-147 189 105 141 0
-147 153 105 141 0
-148 190 154 106 0
-148 190 154 142 0
-148 190 106 142 0
-148 154 106 142 0
-149 191 155 107 0
-149 191 155 143 0
-149 191 107 143 0
-149 155 107 143 0
-150 192 156 108 0
-150 192 156 144 0
-150 192 108 144 0
-150 156 108 144 0
-145 -187 -151 -103 0
-145 -187 -151 -139 0
-145 -187 -103 -139 0
-145 -151 -103 -139 0
-146 -188 -152 -104 0
-146 -188 -152 -140 0
-146 -188 -104 -140 0
-146 -152 -104 -140 0
-147 -189 -153 -105 0
-147 -189 -153 -141 0
-147 -189 -105 -141 0
-147 -153 -105 -141 0
-148 -190 -154 -106 0
-148 -190 -154 -142 0
-148 -190 -106 -142 0
-148 -154 -106 -142 0
-149 -191 -155 -107 0
-149 -191 -155 -143 0
-149 -191 -107 -143 0
-149 -155 -107 -143 0
-150 -192 -156 -108 0
-150 -192 -156 -144 0
-150 -192 -108 -144 0
-150 -156 -108 -144 0
151 152 153 154 155 156 0
-151 426 0
-152 427 0
-426 427 0
-426 -152 0
-153 428 0
-427 428 0
-427 -153 0
-154 429 0
-428 429 0
-428 -154 0
-155 430 0
-429 430 0
-429 -155 0
-430 -156 0
-151 193 157 109 0
-151 193 157 145 0
-151 193 109 145 0
-151 157 109 145 0
-152 194 158 110 0
-152 194 158 146 0
-152 194 110 146 0
-152 158 110 146 0
-153 195 159 111 0
-153 195 159 147 0
-153 195 111 147 0
-153 159 111 147 0
-154 196 160 112 0
-154 196 160 148 0
-154 196 112 148 0
-154 160 112 148 0
-155 197 161 113 0
-155 197 161 149 0
-155 197 113 149 0
-155 161 113 149 0
-156 198 162 114 0
-156 198 162 150 0
-156 198 114 150 0
-156 162 114 150 0
-151 -193 -157 -109 0
-151 -193 -157 -145 0
-151 -193 -109 -145 0
-151 -157 -109 -145 0
-152 -194 -158 -110 0
-152 -194 -158 -146 0
-152 -194 -110 -146 0
-152 -158 -110 -146 0
-153 -195 -159 -111 0
-153 -195 -159 -147 0
-153 -195 -111 -147 0
-153 -159 -111 -147 0
-154 -196 -160 -112 0
-154 -196 -160 -148 0
-154 -196 -112 -148 0
-154 -160 -112 -148 0
-155 -197 -161 -113 0
-155 -197 -161 -149 0
-155 -197 -113 -149 0
-155 -161 -113 -149 0
-156 -198 -162 -114 0
-156 -198 -162 -150 0
-156 -198 -114 -150 0
-156 -162 -114 -150 0
157 158 159 160 161 162 0
-157 431 0
-158 432 0
-431 432 0
-431 -158 0
-159 433 0
-432 433 0
-432 -159 0
-160 434 0
-433 434 0
-433 -160 0
-161 435 0
-434 435 0
-434 -161 0
-435 -162 0
-157 199 163 115 0
-157 199 163 151 0
-157 199 115 151 0
-157 163 115 151 0
-158 200 164 116 0
-158 200 164 152 0
-158 200 116 152 0
-158 164 116 152 0
-159 201 165 117 0
-159 201 165 153 0
-159 201 117 153 0
-159 165 117 153 0
-160 202 166 118 0
-160 202 166 154 0
-160 202 118 154 0
-160 166 118 154 0
-161 203 167 119 0
-161 203 167 155 0
-161 203 119 155 0
-161 167 119 155 0
-162 204 168 120 0
-162 204 168 156 0
-162 204 120 156 0
-162 168 120 156 0
-157 -199 -163 -115 0
-157 -199 -163 -151 0
-157 -199 -115 -151 0
-157 -163 -115 -151 0
-158 -200 -164 -116 0
-158 -200 -164 -152 0
-158 -200 -116 -152 0
-158 -164 -116 -152 0
-159 -201 -165 -117 0
-159 -201 -165 -153 0
-159 -201 -117 -153 0
-159 -165 -117 -153 0
-160 -202 -166 -118 0
-160 -202 -166 -154 0
-160 -202 -118 -154 0
-160 -166 -118 -154 0
-161 -203 -167 -119 0
-161 -203 -167 -155 0
-161 -203 -119 -155 0
-161 -167 -119 -155 0
-162 -204 -168 -120 0
-162 -204 -168 -156 0
-162 -204 -120 -156 0
-162 -168 -120 -156 0
163 164 165 166 167 168 0
-163 436 0
-164 437 0
-436 437 0
-436 -164 0
-165 438 0
-437 438 0
-437 -165 0
-166 439 0
-438 439 0
-438 -166 0
-167 440 0
-439 440 0
-439 -167 0
-440 -168 0
-163 205 157 0
-163 205 121 0
-163 157 121 0
-164 206 158 0
-164 206 122 0
-164 158 122 0
-165 207 159 0
-165 207 123 0
-165 159 123 0
-166 208 160 0
-166 208 124 0
-166 160 124 0
-167 209 161 0
-167 209 125 0
-167 161 125 0
-168 210 162 0
-168 210 126 0
-168 162 126 0
-163 -205 -157 -121 0
-164 -206 -158 -122 0
-165 -207 -159 -123 0
-166 -208 -160 -124 0
-167 -209 -161 -125 0
-168 -210 -162 -126 0
169 170 171 172 173 174 0
-169 441 0
-170 442 0
-441 442 0
-441 -170 0
-171 443 0
-442 443 0
-442 -171 0
-172 444 0
-443 444 0
-443 -172 0
-173 445 0
-444 445 0
-444 -173 0
-445 -174 0
-169 211 175 0
-169 211 127 0
-169 175 127 0
-170 212 176 0
-170 212 128 0
-170 176 128 0
-171 213 177 0
-171 213 129 0
-171 177 129 0
-172 214 178 0
-172 214 130 0
-172 178 130 0
-173 215 179 0
-173 215 131 0
-173 179 131 0
-174 216 180 0
-174 216 132 0
-174 180 132 0
-169 -211 -175 -127 0
-170 -212 -176 -128 0
-171 -213 -177 -129 0
-172 -214 -178 -130 0
-173 -215 -179 -131 0
-174 -216 -180 -132 0
175 176 177 178 179 180 0
-175 446 0
-176 447 0
-446 447 0
-446 -176 0
-177 448 0
-447 448 0
-447 -177 0
-178 449 0
-448 449 0
-448 -178 0
-179 450 0
-449 450 0
-449 -179 0
-450 -180 0
-175 217 181 133 0
-175 217 181 169 0
-175 217 133 169 0
-175 181 133 169 0
-176 218 182 134 0
-176 218 182 170 0
-176 218 134 170 0
-176 182 134 170 0
-177 219 183 135 0
-177 219 183 171 0
-177 219 135 171 0
-177 183 135 171 0
-178 220 184 136 0
-178 220 184 172 0
-178 220 136 172 0
-178 184 136 172 0
-179 221 185 137 0
-179 221 185 173 0
-179 221 137 173 0
-179 185 137 173 0
-180 222 186 138 0
-180 222 186 174 0
-180 222 138 174 0
-180 186 138 174 0
-175 -217 -181 -133 0
-175 -217 -181 -169 0
-175 -217 -133 -169 0
-175 -181 -133 -169 0
-176 -218 -182 -134 0
-176 -218 -182 -170 0
-176 -218 -134 -170 0
-176 -182 -134 -170 0
-177 -219 -183 -135 0
-177 -219 -183 -171 0
-177 -219 -135 -171 0
-177 -183 -135 -171 0
-178 -220 -184 -136 0
-178 -220 -184 -172 0
-178 -220 -136 -172 0
-178 -184 -136 -172 0
-179 -221 -185 -137 0
-179 -221 -185 -173 0
-179 -221 -137 -173 0
-179 -185 -137 -173 0
-180 -222 -186 -138 0
-180 -222 -186 -174 0
-180 -222 -138 -174 0
-180 -186 -138 -174 0
181 182 183 184 185 186 0
-181 451 0
-182 452 0
-451 452 0
-451 -182 0
-183 453 0
-452 453 0
-452 -183 0
-184 454 0
-453 454 0
-453 -184 0
-185 455 0
-454 455 0
-454 -185 0
-455 -186 0
-181 223 187 139 0
-181 223 187 175 0
-181 223 139 175 0
-181 187 139 175 0
-182 224 188 140 0
-182 224 188 176 0
-182 224 140 176 0
-182 188 140 176 0
-183 225 189 141 0
-183 225 189 177 0
-183 225 141 177 0
-183 189 141 177 0
-184 226 190 142 0
-184 226 190 178 0
-184 226 142 178 0
-184 190 142 178 0
-185 227 191 143 0
-185 227 191 179 0
-185 227 143 179 0
-185 191 143 179 0
-186 228 192 144 0
-186 228 192 180 0
-186 228 144 180 0
-186 192 144 180 0
-181 -223 -187 -139 0
-181 -223 -187 -175 0
-181 -223 -139 -175 0
-181 -187 -139 -175 0
-182 -224 -188 -140 0
-182 -224 -188 -176 0
-182 -224 -140 -176 0
-182 -188 -140 -176 0
-183 -225 -189 -141 0
-183 -225 -189 -177 0
-183 -225 -141 -177 0
-183 -189 -141 -177 0
-184 -226 -190 -142 0
-184 -226 -190 -178 0
-184 -226 -142 -178 0
-184 -190 -142 -178 0
-185 -227 -191 -143 0
-185 -227 -191 -179 0
-185 -227 -143 -179 0
-185 -191 -143 -179 0
-186 -228 -192 -144 0
-186 -228 -192 -180 0
-186 -228 -144 -180 0
-186 -192 -144 -180 0
-187 0
-188 0
-189 0
-190 0
-191 0
192 0
234 198 150 186 0
-234 -198 0
-234 -150 0
-234 -186 0
-198 -150 0
-198 -186 0
-150 -186 0
193 194 195 196 197 198 0
-193 461 0
-194 462 0
-461 462 0
-461 -194 0
-195 463 0
-462 463 0
-462 -195 0
-196 464 0
-463 464 0
-463 -196 0
-197 465 0
-464 465 0
-464 -197 0
-465 -198 0
-193 235 199 151 0
-193 235 199 187 0
-193 235 151 187 0
-193 199 151 187 0
-194 236 200 152 0
-194 236 200 188 0
-194 236 152 188 0
-194 200 152 188 0
-195 237 201 153 0
-195 237 201 189 0
-195 237 153 189 0
-195 201 153 189 0
-196 238 202 154 0
-196 238 202 190 0
-196 238 154 190 0
-196 202 154 190 0
-197 239 203 155 0
-197 239 203 191 0
-197 239 155 191 0
-197 203 155 191 0
-198 240 204 156 0
-198 240 204 192 0
-198 240 156 192 0
-198 204 156 192 0
-193 -235 -199 -151 0
-193 -235 -199 -187 0
-193 -235 -151 -187 0
-193 -199 -151 -187 0
-194 -236 -200 -152 0
-194 -236 -200 -188 0
-194 -236 -152 -188 0
-194 -200 -152 -188 0
-195 -237 -201 -153 0
-195 -237 -201 -189 0
-195 -237 -153 -189 0
-195 -201 -153 -189 0
-196 -238 -202 -154 0
-196 -238 -202 -190 0
-196 -238 -154 -190 0
-196 -202 -154 -190 0
-197 -239 -203 -155 0
-197 -239 -203 -191 0
-197 -239 -155 -191 0
-197 -203 -155 -191 0
-198 -240 -204 -156 0
-198 -240 -204 -192 0
-198 -240 -156 -192 0
-198 -204 -156 -192 0
199 200 201 202 203 204 0
-199 466 0
-200 467 0
-466 467 0
-466 -200 0
-201 468 0
-467 468 0
-467 -201 0
-202 469 0
-468 469 0
-468 -202 0
-203 470 0
-469 470 0
-469 -203 0
-470 -204 0
-199 241 205 157 0
-199 241 205 193 0
-199 241 157 193 0
-199 205 157 193 0
-200 242 206 158 0
-200 242 206 194 0
-200 242 158 194 0
-200 206 158 194 0
-201 243 207 159 0
-201 243 207 195 0
-201 243 159 195 0
-201 207 159 195 0
-202 244 208 160 0
-202 244 208 196 0
-202 244 160 196 0
-202 208 160 196 0
-203 245 209 161 0
-203 245 209 197 0
-203 245 161 197 0
-203 209 161 197 0
-204 246 210 162 0
-204 246 210 198 0
-204 246 162 198 0
-204 210 162 198 0
-199 -241 -205 -157 0
-199 -241 -205 -193 0
-199 -241 -157 -193 0
-199 -205 -157 -193 0
-200 -242 -206 -158 0
-200 -242 -206 -194 0
-200 -242 -158 -194 0
-200 -206 -158 -194 0
-201 -243 -207 -159 0
-201 -243 -207 -195 0
-201 -243 -159 -195 0
-201 -207 -159 -195 0
-202 -244 -208 -160 0
-202 -244 -208 -196 0
-202 -244 -160 -196 0
-202 -208 -160 -196 0
-203 -245 -209 -161 0
-203 -245 -209 -197 0
-203 -245 -161 -197 0
-203 -209 -161 -197 0
-204 -246 -210 -162 0
-204 -246 -210 -198 0
-204 -246 -162 -198 0
-204 -210 -162 -198 0
205 206 207 208 209 210 0
-205 471 0
-206 472 0
-471 472 0
-471 -206 0
-207 473 0
-472 473 0
-472 -207 0
-208 474 0
-473 474 0
-473 -208 0
-209 475 0
-474 475 0
-474 -209 0
-475 -210 0
-205 247 199 0
-205 247 163 0
-205 199 163 0
-206 248 200 0
-206 248 164 0
-206 200 164 0
-207 249 201 0
-207 249 165 0
-207 201 165 0
-208 250 202 0
-208 250 166 0
-208 202 166 0
-209 251 203 0
-209 251 167 0
-209 203 167 0
-210 252 204 0
-210 252 168 0
-210 204 168 0
-205 -247 -199 -163 0
-206 -248 -200 -164 0
-207 -249 -201 -165 0
-208 -250 -202 -166 0
-209 -251 -203 -167 0
-210 -252 -204 -168 0
211 212 213 214 215 216 0
-211 476 0
-212 477 0
-476 477 0
-476 -212 0
-213 478 0
-477 478 0
-477 -213 0
-214 479 0
-478 479 0
-478 -214 0
-215 480 0
-479 480 0
-479 -215 0
-480 -216 0
-211 253 217 0
-211 253 169 0
-211 217 169 0
-212 254 218 0
-212 254 170 0
-212 218 170 0
-213 255 219 0
-213 255 171 0
-213 219 171 0
-214 256 220 0
-214 256 172 0
-214 220 172 0
-215 257 221 0
-215 257 173 0
-215 221 173 0
-216 258 222 0
-216 258 174 0
-216 222 174 0
-211 -253 -217 -169 0
-212 -254 -218 -170 0
-213 -255 -219 -171 0
-214 -256 -220 -172 0
-215 -257 -221 -173 0
-216 -258 -222 -174 0
217 218 219 220 221 222 0
-217 481 0
-218 482 0
-481 482 0
-481 -218 0
-219 483 0
-482 483 0
-482 -219 0
-220 484 0
-483 484 0
-483 -220 0
-221 485 0
-484 485 0
-484 -221 0
-485 -222 0
-217 259 223 175 0
-217 259 223 211 0
-217 259 175 211 0
-217 223 175 211 0
-218 260 224 176 0
-218 260 224 212 0
-218 260 176 212 0
-218 224 176 212 0
-219 261 225 177 0
-219 261 225 213 0
-219 261 177 213 0
-219 225 177 213 0
-220 262 226 178 0
-220 262 226 214 0
-220 262 178 214 0
-220 226 178 214 0
-221 263 227 179 0
-221 263 227 215 0
-221 263 179 215 0
-221 227 179 215 0
-222 264 228 180 0
-222 264 228 216 0
-222 264 180 216 0
-222 228 180 216 0
-217 -259 -223 -175 0
-217 -259 -223 -211 0
-217 -259 -175 -211 0
-217 -223 -175 -211 0
-218 -260 -224 -176 0
-218 -260 -224 -212 0
-218 -260 -176 -212 0
-218 -224 -176 -212 0
-219 -261 -225 -177 0
-219 -261 -225 -213 0
-219 -261 -177 -213 0
-219 -225 -177 -213 0
-220 -262 -226 -178 0
-220 -262 -226 -214 0
-220 -262 -178 -214 0
-220 -226 -178 -214 0
-221 -263 -227 -179 0
-221 -263 -227 -215 0
-221 -263 -179 -215 0
-221 -227 -179 -215 0
-222 -264 -228 -180 0
-222 -264 -228 -216 0
-222 -264 -180 -216 0
-222 -228 -180 -216 0
223 224 225 226 227 228 0
-223 486 0
-224 487 0
-486 487 0
-486 -224 0
-225 488 0
-487 488 0
-487 -225 0
-226 489 0
-488 489 0
-488 -226 0
-227 490 0
-489 490 0
-489 -227 0
-490 -228 0
-223 265 229 181 0
-223 265 229 217 0
-223 265 181 217 0
-223 229 181 217 0
-224 266 230 182 0
-224 266 230 218 0
-224 266 182 218 0
-224 230 182 218 0
-225 267 231 183 0
-225 267 231 219 0
-225 267 183 219 0
-225 231 183 219 0
-226 268 232 184 0
-226 268 232 220 0
-226 268 184 220 0
-226 232 184 220 0
-227 269 233 185 0
-227 269 233 221 0
-227 269 185 221 0
-227 233 185 221 0
-228 270 234 186 0
-228 270 234 222 0
-228 270 186 222 0
-228 234 186 222 0
-223 -265 -229 -181 0
-223 -265 -229 -217 0
-223 -265 -181 -217 0
-223 -229 -181 -217 0
-224 -266 -230 -182 0
-224 -266 -230 -218 0
-224 -266 -182 -218 0
-224 -230 -182 -218 0
-225 -267 -231 -183 0
-225 -267 -231 -219 0
-225 -267 -183 -219 0
-225 -231 -183 -219 0
-226 -268 -232 -184 0
-226 -268 -232 -220 0
-226 -268 -184 -220 0
-226 -232 -184 -220 0
-227 -269 -233 -185 0
-227 -269 -233 -221 0
-227 -269 -185 -221 0
-227 -233 -185 -221 0
-228 -270 -234 -186 0
-228 -270 -234 -222 0
-228 -270 -186 -222 0
-228 -234 -186 -222 0
229 230 231 232 233 234 0
-229 491 0
-230 492 0
-491 492 0
-491 -230 0
-231 493 0
-492 493 0
-492 -231 0
-232 494 0
-493 494 0
-493 -232 0
-233 495 0
-494 495 0
-494 -233 0
-495 -234 0
-229 271 235 187 0
-229 271 235 223 0
-229 271 187 223 0
-229 235 187 223 0
-230 272 236 188 0
-230 272 236 224 0
-230 272 188 224 0
-230 236 188 224 0
-231 273 237 189 0
-231 273 237 225 0
-231 273 189 225 0
-231 237 189 225 0
-232 274 238 190 0
-232 274 238 226 0
-232 274 190 226 0
-232 238 190 226 0
-233 275 239 191 0
-233 275 239 227 0
-233 275 191 227 0
-233 239 191 227 0
-234 276 240 192 0
-234 276 240 228 0
-234 276 192 228 0
-234 240 192 228 0
-229 -271 -235 -187 0
-229 -271 -235 -223 0
-229 -271 -187 -223 0
-229 -235 -187 -223 0
-230 -272 -236 -188 0
-230 -272 -236 -224 0
-230 -272 -188 -224 0
-230 -236 -188 -224 0
-231 -273 -237 -189 0
-231 -273 -237 -225 0
-231 -273 -189 -225 0
-231 -237 -189 -225 0
-232 -274 -238 -190 0
-232 -274 -238 -226 0
-232 -274 -190 -226 0
-232 -238 -190 -226 0
-233 -275 -239 -191 0
-233 -275 -239 -227 0
-233 -275 -191 -227 0
-233 -239 -191 -227 0
-234 -276 -240 -192 0
-234 -276 -240 -228 0
-234 -276 -192 -228 0
-234 -240 -192 -228 0
235 236 237 238 239 240 0
-235 496 0
-236 497 0
-496 497 0
-496 -236 0
-237 498 0
-497 498 0
-497 -237 0
-238 499 0
-498 499 0
-498 -238 0
-239 500 0
-499 500 0
-499 -239 0
-500 -240 0
-235 277 241 193 0
-235 277 241 229 0
-235 277 193 229 0
-235 241 193 229 0
-236 278 242 194 0
-236 278 242 230 0
-236 278 194 230 0
-236 242 194 230 0
-237 279 243 195 0
-237 279 243 231 0
-237 279 195 231 0
-237 243 195 231 0
-238 280 244 196 0
-238 280 244 232 0
-238 280 196 232 0
-238 244 196 232 0
-239 281 245 197 0
-239 281 245 233 0
-239 281 197 233 0
-239 245 197 233 0
-240 282 246 198 0
-240 282 246 234 0
-240 282 198 234 0
-240 246 198 234 0
-235 -277 -241 -193 0
-235 -277 -241 -229 0
-235 -277 -193 -229 0
-235 -241 -193 -229 0
-236 -278 -242 -194 0
-236 -278 -242 -230 0
-236 -278 -194 -230 0
-236 -242 -194 -230 0
-237 -279 -243 -195 0
-237 -279 -243 -231 0
-237 -279 -195 -231 0
-237 -243 -195 -231 0
-238 -280 -244 -196 0
-238 -280 -244 -232 0
-238 -280 -196 -232 0
-238 -244 -196 -232 0
-239 -281 -245 -197 0
-239 -281 -245 -233 0
-239 -281 -197 -233 0
-239 -245 -197 -233 0
-240 -282 -246 -198 0
-240 -282 -246 -234 0
-240 -282 -198 -234 0
-240 -246 -198 -234 0
241 242 243 244 245 246 0
-241 501 0
-242 502 0
-501 502 0
-501 -242 0
-243 503 0
-502 503 0
-502 -243 0
-244 504 0
-503 504 0
-503 -244 0
-245 505 0
-504 505 0
-504 -245 0
-505 -246 0
-241 283 247 199 0
-241 283 247 235 0
-241 283 199 235 0
-241 247 199 235 0
-242 284 248 200 0
-242 284 248 236 0
-242 284 200 236 0
-242 248 200 236 0
-243 285 249 201 0
-243 285 249 237 0
-243 285 201 237 0
-243 249 201 237 0
-244 286 250 202 0
-244 286 250 238 0
-244 286 202 238 0
-244 250 202 238 0
-245 287 251 203 0
-245 287 251 239 0
-245 287 203 239 0
-245 251 203 239 0
-246 288 252 204 0
-246 288 252 240 0
-246 288 204 240 0
-246 252 204 240 0
-241 -283 -247 -199 0
-241 -283 -247 -235 0
-241 -283 -199 -235 0
-241 -247 -199 -235 0
-242 -284 -248 -200 0
-242 -284 -248 -236 0
-242 -284 -200 -236 0
-242 -248 -200 -236 0
-243 -285 -249 -201 0
-243 -285 -249 -237 0
-243 -285 -201 -237 0
-243 -249 -201 -237 0
-244 -286 -250 -202 0
-244 -286 -250 -238 0
-244 -286 -202 -238 0
-244 -250 -202 -238 0
-245 -287 -251 -203 0
-245 -287 -251 -239 0
-245 -287 -203 -239 0
-245 -251 -203 -239 0
-246 -288 -252 -204 0
-246 -288 -252 -240 0
-246 -288 -204 -240 0
-246 -252 -204 -240 0
247 248 249 250 251 252 0
-247 506 0
-248 507 0
-506 507 0
-506 -248 0
-249 508 0
-507 508 0
-507 -249 0
-250 509 0
-508 509 0
-508 -250 0
-251 510 0
-509 510 0
-509 -251 0
-510 -252 0
-247 289 241 0
-247 289 205 0
-247 241 205 0
-248 290 242 0
-248 290 206 0
-248 242 206 0
-249 291 243 0
-249 291 207 0
-249 243 207 0
-250 292 244 0
-250 292 208 0
-250 244 208 0
-251 293 245 0
-251 293 209 0
-251 245 209 0
-252 294 246 0
-252 294 210 0
-252 246 210 0
-247 -289 -241 -205 0
-248 -290 -242 -206 0
-249 -291 -243 -207 0
-250 -292 -244 -208 0
-251 -293 -245 -209 0
-252 -294 -246 -210 0
-253 0
-254 0
-255 0
-257 0
-258 0
256 0
214 262 0
-214 -262 0
259 260 261 262 263 264 0
-259 516 0
-260 517 0
-516 517 0
-516 -260 0
-261 518 0
-517 518 0
-517 -261 0
-262 519 0
-518 519 0
-518 -262 0
-263 520 0
-519 520 0
-519 -263 0
-520 -264 0
-259 217 265 0
-259 217 253 0
-259 265 253 0
-260 218 266 0
-260 218 254 0
-260 266 254 0
-261 219 267 0
-261 219 255 0
-261 267 255 0
-262 220 268 0
-262 220 256 0
-262 268 256 0
-263 221 269 0
-263 221 257 0
-263 269 257 0
-264 222 270 0
-264 222 258 0
-264 270 258 0
-259 -217 -265 -253 0
-260 -218 -266 -254 0
-261 -219 -267 -255 0
-262 -220 -268 -256 0
-263 -221 -269 -257 0
-264 -222 -270 -258 0
265 266 267 268 269 270 0
-265 521 0
-266 522 0
-521 522 0
-521 -266 0
-267 523 0
-522 523 0
-522 -267 0
-268 524 0
-523 524 0
-523 -268 0
-269 525 0
-524 525 0
-524 -269 0
-525 -270 0
-265 223 271 0
-265 223 259 0
-265 271 259 0
-266 224 272 0
-266 224 260 0
-266 272 260 0
-267 225 273 0
-267 225 261 0
-267 273 261 0
-268 226 274 0
-268 226 262 0
-268 274 262 0
-269 227 275 0
-269 227 263 0
-269 275 263 0
-270 228 276 0
-270 228 264 0
-270 276 264 0
-265 -223 -271 -259 0
-266 -224 -272 -260 0
-267 -225 -273 -261 0
-268 -226 -274 -262 0
-269 -227 -275 -263 0
-270 -228 -276 -264 0
271 272 273 274 275 276 0
-271 526 0
-272 527 0
-526 527 0
-526 -272 0
-273 528 0
-527 528 0
-527 -273 0
-274 529 0
-528 529 0
-528 -274 0
-275 530 0
-529 530 0
-529 -275 0
-530 -276 0
-271 229 277 0
-271 229 265 0
-271 277 265 0
-272 230 278 0
-272 230 266 0
-272 278 266 0
-273 231 279 0
-273 231 267 0
-273 279 267 0
-274 232 280 0
-274 232 268 0
-274 280 268 0
-275 233 281 0
-275 233 269 0
-275 281 269 0
-276 234 282 0
-276 234 270 0
-276 282 270 0
-271 -229 -277 -265 0
-272 -230 -278 -266 0
-273 -231 -279 -267 0
-274 -232 -280 -268 0
-275 -233 -281 -269 0
-276 -234 -282 -270 0
277 278 279 280 281 282 0
-277 531 0
-278 532 0
-531 532 0
-531 -278 0
-279 533 0
-532 533 0
-532 -279 0
-280 534 0
-533 534 0
-533 -280 0
-281 535 0
-534 535 0
-534 -281 0
-535 -282 0
-277 235 283 0
-277 235 271 0
-277 283 271 0
-278 236 284 0
-278 236 272 0
-278 284 272 0
-279 237 285 0
-279 237 273 0
-279 285 273 0
-280 238 286 0
-280 238 274 0
-280 286 274 0
-281 239 287 0
-281 239 275 0
-281 287 275 0
-282 240 288 0
-282 240 276 0
-282 288 276 0
-277 -235 -283 -271 0
-278 -236 -284 -272 0
-279 -237 -285 -273 0
-280 -238 -286 -274 0
-281 -239 -287 -275 0
-282 -240 -288 -276 0
-283 0
-284 0
-286 0
-287 0
-288 0
285 0
243 291 279 0
-243 -291 0
-243 -279 0
-291 -279 0
-289 0
-290 0
-291 0
-292 0
-294 0
293 0
251 287 0
-251 -287 0